unsat
(:added-eqs                       450529
 :arith-eq-adapter                1058
 :arith-bound-propagations-lp     20928
 :arith-branch                    33
 :arith-conflicts                 7541
 :arith-cube-calls                17
 :arith-diseq                     61048
 :arith-fixed-eqs                 37094
 :arith-gcd-calls                 444
 :arith-gomory-cuts               17
 :arith-grobner-calls             754
 :arith-grobner-conflicts         207
 :arith-hnf-calls                 5
 :arith-horner-calls              214
 :arith-horner-conflicts          2
 :arith-horner-cross-nested-forms 15296
 :arith-lower                     176074
 :arith-make-feasible             57115
 :arith-max-columns               901
 :arith-max-rows                  447
 :arith-nla-add-bounds            138
 :arith-nla-lemmas                2220
 :arith-nla-propagate-bounds      1264
 :arith-nla-propagate-eq          111727
 :arith-nra-calls                 78
 :arith-offset-eqs                49736
 :arith-patches                   444
 :arith-patches-success           382
 :arith-upper                     239859
 :binary-propagations             1033259
 :card2bv-rewrites                1
 :cnf-encoding-aux-vars           2
 :conflicts                       13484
 :decisions                       146820
 :del-clause                      18286
 :elim-unconstrained              50
 :final-checks                    1609
 :max-memory                      122.02
 :memory                          91.97
 :minimized-lits                  58473
 :mk-bool-var                     8331
 :mk-clause                       24840
 :mk-clause-binary                9798
 :nlsat-conflicts                 8557
 :nlsat-decisions                 1284
 :nlsat-propagations              295200
 :nlsat-restarts                  1
 :nlsat-stages                    130290
 :num-allocs                      7494315307.00
 :num-checks                      2
 :propagations                    1662189
 :restarts                        95
 :rlimit-count                    12848633
 :sat-mk-clause-2ary              30965
 :sat-mk-clause-nary              43202
 :sat-mk-var                      21277
 :solve-eqs-elim-vars             59
 :solve-eqs-steps                 954
 :time                            9.63
 :total-time                      9.64)
